10J3M/DAT/10J3MNLL-2.dat
10 3
23.5333 23.5333
16.1424 16.1424
18.0881 18.0881
23.3459 23.3459
24.0807 24.0807
27.8036 27.8036
23.183 23.183
17.4121 17.4121
25.6222 25.6222
30.7759 30.7759
76.6624