10J3M/SOL/10J3MNLL-2.sol
solution status: optimal solution found
objective value:                     84.5085666666667
x#1#2                               0.283245065719303 	(obj:0)
x#1#3                               0.716754934280697 	(obj:0)
x#2#1                                               1 	(obj:0)
x#3#3                                               1 	(obj:0)
x#4#3                                               1 	(obj:0)
x#5#2                                               1 	(obj:0)
x#6#2                                               1 	(obj:0)
x#7#1                                               1 	(obj:0)
x#8#1                                               1 	(obj:0)
x#9#1                                               1 	(obj:0)
x#10#1                             0.0651569406993012 	(obj:0)
x#10#2                              0.934843059300699 	(obj:0)
z                                    84.5085666666667 	(obj:1)
